(set-info :source |
 Generated by Alive 0.1
 More info in N. P. Lopes, D. Menendez, S. Nagarakatte, J. Regehr.
 Provably Correct Peephole Optimizations with Alive. In PLDI'15.
|)

(set-info :status unknown)
(declare-fun %B () (_ BitVec 50))
(declare-fun %C () (_ BitVec 50))
(declare-fun %Cond () (_ BitVec 1))
(assert
 (let (($x179248 (= %Cond (_ bv1 1))))
 (let ((?x266432 (ite $x179248 %C %B)))
 (let ((?x273497 (bvxor %Cond (_ bv1 1))))
 (let ((?x253559 ((_ sign_extend 49) ?x273497)))
 (let ((?x242811 (bvand %B ?x253559)))
 (let ((?x267406 ((_ sign_extend 49) %Cond)))
 (let ((?x266249 (bvand ?x267406 %C)))
 (and (distinct (bvor ?x266249 ?x242811) ?x266432) true)))))))))
(check-sat)
